GLPSOL--GLPK LP/MIP Solver 5.0
Parameter(s) specified in the command line:
 --cpxlp --first inputs/new_tr/order/dag78_down_left_input.lp -o solutions/new_tr/dag78_down_left_input.lp
Reading problem data from 'inputs/new_tr/order/dag78_down_left_input.lp'...
inputs/new_tr/order/dag78_down_left_input.lp:9298: warning: lower bound of variable 'm_6_6' redefined
inputs/new_tr/order/dag78_down_left_input.lp:9298: warning: upper bound of variable 'm_6_6' redefined
8698 rows, 3404 columns, 25198 non-zeros
3404 integer variables, 2811 of which are binary
12660 lines were read
GLPK Integer Optimizer 5.0
8698 rows, 3404 columns, 25198 non-zeros
3404 integer variables, 2811 of which are binary
Preprocessing...
442 hidden packing inequaliti(es) were detected
178 hidden covering inequaliti(es) were detected
818 constraint coefficient(s) were reduced
4830 rows, 1804 columns, 13288 non-zeros
1804 integer variables, 1763 of which are binary
Scaling...
 A: min|aij| =  1.000e+00  max|aij| =  2.621e+05  ratio =  2.621e+05
GM: min|aij| =  3.895e-01  max|aij| =  2.567e+00  ratio =  6.591e+00
EQ: min|aij| =  1.562e-01  max|aij| =  1.000e+00  ratio =  6.402e+00
2N: min|aij| =  1.250e-01  max|aij| =  1.750e+00  ratio =  1.400e+01
Constructing initial basis...
Size of triangular part is 4421
Solving LP relaxation...
GLPK Simplex Optimizer 5.0
4830 rows, 1804 columns, 13288 non-zeros
      0: obj =   6.553600000e+05 inf =   7.830e+02 (428)
   1614: obj =   1.004602269e+06 inf =   7.751e-15 (0) 14
*  2298: obj =   7.536640000e+05 inf =   3.109e-13 (0) 6
OPTIMAL LP SOLUTION FOUND
Integer optimization begins...
Long-step dual simplex will be used
+  2298: mip =     not found yet >=              -inf        (1; 0)
+ 22011: mip =     not found yet >=   7.536640000e+05        (40; 6)
+ 39693: mip =     not found yet >=   7.536640000e+05        (113; 20)
+ 61597: mip =     not found yet >=   7.536640000e+05        (119; 33)
+ 79675: mip =     not found yet >=   7.536640000e+05        (144; 46)
+ 97630: mip =     not found yet >=   7.536640000e+05        (175; 57)
+117636: mip =     not found yet >=   7.536640000e+05        (187; 65)
+135750: mip =     not found yet >=   7.536640000e+05        (218; 76)
+152809: mip =     not found yet >=   7.536640000e+05        (226; 78)
+169671: mip =     not found yet >=   7.536640000e+05        (240; 87)
+187358: mip =     not found yet >=   7.536640000e+05        (258; 92)
+202586: >>>>>   1.097728000e+06 >=   7.536640000e+05  31.3% (347; 96)
Time used: 60.1 secs.  Memory used: 10.8 Mb.
+220602: mip =   1.097728000e+06 >=   7.536640000e+05  31.3% (441; 114)
+238187: mip =   1.097728000e+06 >=   7.536640000e+05  31.3% (464; 117)
+255694: mip =   1.097728000e+06 >=   7.536640000e+05  31.3% (557; 130)
+272508: mip =   1.097728000e+06 >=   7.536640000e+05  31.3% (580; 133)
+295593: mip =   1.097728000e+06 >=   7.536640000e+05  31.3% (639; 159)
+312352: mip =   1.097728000e+06 >=   7.536640000e+05  31.3% (694; 174)
+328991: mip =   1.097728000e+06 >=   7.536640000e+05  31.3% (723; 190)
+348016: mip =   1.097728000e+06 >=   7.536640000e+05  31.3% (759; 205)
+361083: >>>>>   9.011200000e+05 >=   7.536640000e+05  16.4% (811; 210)
+378909: mip =   9.011200000e+05 >=   7.536640000e+05  16.4% (701; 439)
+397863: mip =   9.011200000e+05 >=   7.536640000e+05  16.4% (747; 442)
Time used: 120.4 secs.  Memory used: 14.5 Mb.
+415885: mip =   9.011200000e+05 >=   7.536640000e+05  16.4% (768; 451)
+433092: mip =   9.011200000e+05 >=   7.536640000e+05  16.4% (788; 461)
+453257: mip =   9.011200000e+05 >=   7.536640000e+05  16.4% (810; 474)
+472830: mip =   9.011200000e+05 >=   7.536640000e+05  16.4% (823; 487)
+490545: mip =   9.011200000e+05 >=   7.536640000e+05  16.4% (846; 501)
+507343: mip =   9.011200000e+05 >=   7.537140000e+05  16.4% (843; 514)
+524225: mip =   9.011200000e+05 >=   7.566540000e+05  16.0% (865; 531)
+540949: mip =   9.011200000e+05 >=   7.575090000e+05  15.9% (888; 547)
+557721: mip =   9.011200000e+05 >=   7.576850000e+05  15.9% (903; 556)
+574920: mip =   9.011200000e+05 >=   7.589640000e+05  15.8% (943; 573)
+592323: mip =   9.011200000e+05 >=   7.602070000e+05  15.6% (957; 577)
Time used: 180.4 secs.  Memory used: 17.7 Mb.
+610448: mip =   9.011200000e+05 >=   7.616180000e+05  15.5% (967; 584)
+627227: mip =   9.011200000e+05 >=   7.619290000e+05  15.4% (977; 591)
+646363: mip =   9.011200000e+05 >=   7.624280000e+05  15.4% (984; 598)
+666916: mip =   9.011200000e+05 >=   7.639650000e+05  15.2% (997; 604)
+686041: mip =   9.011200000e+05 >=   7.652150000e+05  15.1% (1008; 614)
+701294: mip =   9.011200000e+05 >=   7.654930000e+05  15.1% (1015; 619)
+718732: mip =   9.011200000e+05 >=   7.662950000e+05  15.0% (1077; 632)
+737983: mip =   9.011200000e+05 >=   7.700480000e+05  14.5% (1128; 661)
+754625: mip =   9.011200000e+05 >=   7.700480000e+05  14.5% (1125; 677)
+771091: mip =   9.011200000e+05 >=   7.700480000e+05  14.5% (1130; 686)
+788710: mip =   9.011200000e+05 >=   7.734160000e+05  14.2% (1155; 708)
+807895: mip =   9.011200000e+05 >=   7.743530000e+05  14.1% (1243; 728)
Time used: 241.5 secs.  Memory used: 21.5 Mb.
+816757: >>>>>   8.847360000e+05 >=   7.744730000e+05  12.5% (1275; 737)
+837118: mip =   8.847360000e+05 >=   7.785550000e+05  12.0% (1066; 1327)
+853856: mip =   8.847360000e+05 >=   7.854150000e+05  11.2% (1073; 1355)
+874778: mip =   8.847360000e+05 >=   7.864320000e+05  11.1% (1342; 1413)
+882083: >>>>>   8.355840000e+05 >=   7.864320000e+05   5.9% (1450; 1435)
+882372: >>>>>   8.192000000e+05 >=   7.864320000e+05   4.0% (1159; 2064)
+900766: mip =   8.192000000e+05 >=   7.864320000e+05   4.0% (390; 4566)
+919871: mip =   8.192000000e+05 >=   7.864320000e+05   4.0% (446; 5205)
+938564: mip =   8.192000000e+05 >=   7.864320000e+05   4.0% (493; 6144)
+956649: mip =   8.192000000e+05 >=   7.864320000e+05   4.0% (554; 7064)
+975904: mip =   8.192000000e+05 >=   7.864320000e+05   4.0% (570; 7969)
+992684: mip =   8.192000000e+05 >=   7.864320000e+05   4.0% (572; 8539)
+1009871: mip =   8.192000000e+05 >=   7.864320000e+05   4.0% (571; 9660)
Time used: 301.5 secs.  Memory used: 22.9 Mb.
+1027325: mip =   8.192000000e+05 >=   7.864320000e+05   4.0% (580; 10690)
+1044796: mip =   8.192000000e+05 >=   7.864320000e+05   4.0% (593; 11378)
+1066281: mip =   8.192000000e+05 >=   7.864320000e+05   4.0% (657; 12008)
+1087920: mip =   8.192000000e+05 >=   7.864320000e+05   4.0% (708; 12692)
+1109617: mip =   8.192000000e+05 >=   7.864320000e+05   4.0% (748; 13385)
+1129462: mip =   8.192000000e+05 >=   7.864320000e+05   4.0% (746; 14226)
+1148594: mip =   8.192000000e+05 >=   7.864320000e+05   4.0% (812; 14585)
+1168772: mip =   8.192000000e+05 >=   7.864320000e+05   4.0% (833; 14887)
+1189666: mip =   8.192000000e+05 >=   7.864320000e+05   4.0% (871; 15091)
+1208294: mip =   8.192000000e+05 >=   7.864320000e+05   4.0% (905; 15804)
+1227329: mip =   8.192000000e+05 >=   7.864320000e+05   4.0% (971; 16594)
+1247676: mip =   8.192000000e+05 >=   7.864320000e+05   4.0% (991; 17426)
Time used: 361.5 secs.  Memory used: 24.7 Mb.
+1270270: mip =   8.192000000e+05 >=   7.864320000e+05   4.0% (1047; 18051)
+1292117: mip =   8.192000000e+05 >=   7.864320000e+05   4.0% (1104; 18700)
+1310138: mip =   8.192000000e+05 >=   7.864320000e+05   4.0% (1123; 19013)
+1329290: mip =   8.192000000e+05 >=   7.864320000e+05   4.0% (1134; 19829)
+1347899: mip =   8.192000000e+05 >=   7.864320000e+05   4.0% (1174; 20625)
+1367036: mip =   8.192000000e+05 >=   7.864320000e+05   4.0% (1192; 21154)
+1385058: mip =   8.192000000e+05 >=   7.864320000e+05   4.0% (1209; 22054)
+1403588: mip =   8.192000000e+05 >=   7.864320000e+05   4.0% (1236; 22868)
+1421401: mip =   8.192000000e+05 >=   7.864320000e+05   4.0% (1263; 23843)
+1439064: mip =   8.192000000e+05 >=   7.864320000e+05   4.0% (1287; 24790)
+1459103: mip =   8.192000000e+05 >=   7.864320000e+05   4.0% (1289; 25591)
+1478788: mip =   8.192000000e+05 >=   7.864320000e+05   4.0% (1319; 26385)
Time used: 421.5 secs.  Memory used: 29.1 Mb.
+1499362: mip =   8.192000000e+05 >=   7.864320000e+05   4.0% (1361; 26908)
+1518277: mip =   8.192000000e+05 >=   7.864320000e+05   4.0% (1375; 27470)
+1534413: mip =   8.192000000e+05 >=   7.864320000e+05   4.0% (1372; 28401)
+1552235: mip =   8.192000000e+05 >=   7.864320000e+05   4.0% (1374; 29342)
+1570333: mip =   8.192000000e+05 >=   7.864320000e+05   4.0% (1387; 30224)
+1588695: mip =   8.192000000e+05 >=   7.864320000e+05   4.0% (1423; 31103)
+1608075: mip =   8.192000000e+05 >=   7.864320000e+05   4.0% (1427; 31906)
+1627037: mip =   8.192000000e+05 >=   7.864320000e+05   4.0% (1473; 32725)
+1647341: mip =   8.192000000e+05 >=   7.864320000e+05   4.0% (1501; 33416)
+1664872: mip =   8.192000000e+05 >=   7.864320000e+05   4.0% (1497; 34498)
+1683383: mip =   8.192000000e+05 >=   7.864320000e+05   4.0% (1518; 35416)
+1700323: mip =   8.192000000e+05 >=   7.864320000e+05   4.0% (1494; 36522)
Time used: 481.5 secs.  Memory used: 31.7 Mb.
+1719085: mip =   8.192000000e+05 >=   7.864320000e+05   4.0% (1527; 37005)
+1739226: mip =   8.192000000e+05 >=   7.864320000e+05   4.0% (1595; 37831)
+1761825: mip =   8.192000000e+05 >=   7.864320000e+05   4.0% (1645; 38727)
+1784323: mip =   8.192000000e+05 >=   7.864320000e+05   4.0% (1699; 39488)
+1806090: mip =   8.192000000e+05 >=   7.864320000e+05   4.0% (1776; 40125)
+1828931: mip =   8.192000000e+05 >=   7.864320000e+05   4.0% (1826; 40807)
+1845817: mip =   8.192000000e+05 >=   7.864320000e+05   4.0% (1871; 41824)
+1860891: mip =   8.192000000e+05 >=   7.864320000e+05   4.0% (1866; 43068)
+1877241: mip =   8.192000000e+05 >=   7.864320000e+05   4.0% (1917; 44125)
+1893481: mip =   8.192000000e+05 >=   7.864320000e+05   4.0% (1893; 45449)
+1910286: mip =   8.192000000e+05 >=   7.864320000e+05   4.0% (1902; 46643)
+1927712: mip =   8.192000000e+05 >=   7.864320000e+05   4.0% (1944; 47752)
Time used: 541.5 secs.  Memory used: 38.1 Mb.
+1945493: mip =   8.192000000e+05 >=   7.864320000e+05   4.0% (1990; 48793)
+1961624: mip =   8.192000000e+05 >=   7.864320000e+05   4.0% (1975; 50139)
+1979454: mip =   8.192000000e+05 >=   7.864320000e+05   4.0% (1982; 51243)
+1995741: mip =   8.192000000e+05 >=   7.864320000e+05   4.0% (2017; 52378)
+2011105: mip =   8.192000000e+05 >=   7.864320000e+05   4.0% (2023; 53570)
+2029575: mip =   8.192000000e+05 >=   7.864320000e+05   4.0% (2070; 54465)
+2047844: mip =   8.192000000e+05 >=   7.864320000e+05   4.0% (2090; 55380)
+2066326: mip =   8.192000000e+05 >=   7.864320000e+05   4.0% (2107; 56210)
+2083233: mip =   8.192000000e+05 >=   7.864320000e+05   4.0% (2115; 57248)
+2102314: mip =   8.192000000e+05 >=   7.864320000e+05   4.0% (2126; 58199)
+2121686: mip =   8.192000000e+05 >=   7.864320000e+05   4.0% (2167; 59133)
+2140322: mip =   8.192000000e+05 >=   7.864320000e+05   4.0% (2196; 59934)
Time used: 601.5 secs.  Memory used: 41.0 Mb.
+2157869: mip =   8.192000000e+05 >=   7.864320000e+05   4.0% (2229; 60955)
+2177439: mip =   8.192000000e+05 >=   7.864320000e+05   4.0% (2249; 61802)
+2197284: mip =   8.192000000e+05 >=   7.864320000e+05   4.0% (2339; 62379)
+2216644: mip =   8.192000000e+05 >=   7.864320000e+05   4.0% (2389; 63180)
+2236704: mip =   8.192000000e+05 >=   7.864320000e+05   4.0% (2439; 63895)
+2255461: mip =   8.192000000e+05 >=   7.864320000e+05   4.0% (2473; 64784)
+2277372: mip =   8.192000000e+05 >=   7.864320000e+05   4.0% (2510; 65198)
+2295304: mip =   8.192000000e+05 >=   7.864320000e+05   4.0% (2523; 66150)
+2314136: mip =   8.192000000e+05 >=   7.864320000e+05   4.0% (2550; 67034)
+2333321: mip =   8.192000000e+05 >=   7.864320000e+05   4.0% (2592; 67911)
+2352245: mip =   8.192000000e+05 >=   7.864320000e+05   4.0% (2615; 68718)
+2369527: mip =   8.192000000e+05 >=   7.864320000e+05   4.0% (2638; 69684)
Time used: 661.5 secs.  Memory used: 47.0 Mb.
+2388633: mip =   8.192000000e+05 >=   7.864320000e+05   4.0% (2656; 70473)
+2410160: mip =   8.192000000e+05 >=   7.864320000e+05   4.0% (2701; 71082)
+2428783: mip =   8.192000000e+05 >=   7.864320000e+05   4.0% (2707; 71996)
+2449454: mip =   8.192000000e+05 >=   7.864320000e+05   4.0% (2715; 72880)
+2469221: mip =   8.192000000e+05 >=   7.864320000e+05   4.0% (2735; 73641)
+2489453: mip =   8.192000000e+05 >=   7.864320000e+05   4.0% (2775; 74319)
+2509082: mip =   8.192000000e+05 >=   7.864320000e+05   4.0% (2806; 75015)
+2529955: mip =   8.192000000e+05 >=   7.864320000e+05   4.0% (2828; 75578)
+2550359: mip =   8.192000000e+05 >=   7.864320000e+05   4.0% (2859; 76291)
+2571481: mip =   8.192000000e+05 >=   7.864320000e+05   4.0% (2887; 76945)
+2591117: mip =   8.192000000e+05 >=   7.864320000e+05   4.0% (2909; 77547)
+2610409: mip =   8.192000000e+05 >=   7.864320000e+05   4.0% (2931; 78168)
Time used: 721.5 secs.  Memory used: 50.1 Mb.
+2628910: mip =   8.192000000e+05 >=   7.864320000e+05   4.0% (2992; 78883)
+2646219: mip =   8.192000000e+05 >=   7.864320000e+05   4.0% (3013; 79699)
+2664959: mip =   8.192000000e+05 >=   7.864320000e+05   4.0% (3067; 80233)
+2683544: mip =   8.192000000e+05 >=   7.864320000e+05   4.0% (3104; 80849)
+2701137: mip =   8.192000000e+05 >=   7.864320000e+05   4.0% (3105; 81735)
+2719349: mip =   8.192000000e+05 >=   7.864320000e+05   4.0% (3149; 82482)
+2737655: mip =   8.192000000e+05 >=   7.864320000e+05   4.0% (3152; 83261)
+2755831: mip =   8.192000000e+05 >=   7.864320000e+05   4.0% (3202; 83900)
+2771106: mip =   8.192000000e+05 >=   7.864620000e+05   4.0% (3143; 85121)
+2788291: mip =   8.192000000e+05 >=   7.864620000e+05   4.0% (3137; 86229)
+2807757: mip =   8.192000000e+05 >=   7.872950000e+05   3.9% (3096; 87092)
+2826324: mip =   8.192000000e+05 >=   7.878520000e+05   3.8% (3059; 87543)
Time used: 781.6 secs.  Memory used: 53.2 Mb.
+2844165: mip =   8.192000000e+05 >=   7.878520000e+05   3.8% (3061; 87575)
+2862993: mip =   8.192000000e+05 >=   7.879200000e+05   3.8% (3124; 87854)
+2884644: mip =   8.192000000e+05 >=   7.879200000e+05   3.8% (3217; 88421)
+2902759: mip =   8.192000000e+05 >=   7.879200000e+05   3.8% (3270; 89097)
+2921390: mip =   8.192000000e+05 >=   7.879200000e+05   3.8% (3339; 89769)
+2937990: mip =   8.192000000e+05 >=   7.879200000e+05   3.8% (3377; 90405)
+2956450: mip =   8.192000000e+05 >=   7.879200000e+05   3.8% (3482; 91014)
+2972420: mip =   8.192000000e+05 >=   7.879200000e+05   3.8% (3577; 91862)
+2991501: mip =   8.192000000e+05 >=   7.879200000e+05   3.8% (3611; 92484)
+3010570: mip =   8.192000000e+05 >=   7.879200000e+05   3.8% (3649; 93082)
+3028292: mip =   8.192000000e+05 >=   7.879200000e+05   3.8% (3687; 93659)
+3047852: mip =   8.192000000e+05 >=   7.879200000e+05   3.8% (3717; 94255)
Time used: 841.6 secs.  Memory used: 63.9 Mb.
+3067904: mip =   8.192000000e+05 >=   7.879200000e+05   3.8% (3764; 94686)
+3087627: mip =   8.192000000e+05 >=   7.879200000e+05   3.8% (3846; 95172)
+3107333: mip =   8.192000000e+05 >=   7.879200000e+05   3.8% (3874; 95531)
+3125513: mip =   8.192000000e+05 >=   7.879400000e+05   3.8% (3903; 96147)
+3145497: mip =   8.192000000e+05 >=   7.887430000e+05   3.7% (3799; 96935)
+3161659: mip =   8.192000000e+05 >=   7.898460000e+05   3.6% (3417; 98887)
+3183840: mip =   8.192000000e+05 >=   7.898460000e+05   3.6% (3396; 99421)
+3204201: mip =   8.192000000e+05 >=   7.898970000e+05   3.6% (3371; 99963)
+3223469: mip =   8.192000000e+05 >=   7.907560000e+05   3.5% (3383; 100293)
+3243151: mip =   8.192000000e+05 >=   7.907560000e+05   3.5% (3451; 100930)
+3262406: mip =   8.192000000e+05 >=   7.907560000e+05   3.5% (3483; 101534)
+3281102: mip =   8.192000000e+05 >=   7.907560000e+05   3.5% (3495; 102339)
Time used: 901.6 secs.  Memory used: 66.7 Mb.
+3300383: mip =   8.192000000e+05 >=   7.907560000e+05   3.5% (3524; 102915)
+3320276: mip =   8.192000000e+05 >=   7.907560000e+05   3.5% (3534; 103574)
+3338430: mip =   8.192000000e+05 >=   7.907560000e+05   3.5% (3554; 104369)
+3355656: mip =   8.192000000e+05 >=   7.907560000e+05   3.5% (3570; 105201)
+3374552: mip =   8.192000000e+05 >=   7.907560000e+05   3.5% (3593; 105767)
+3394561: mip =   8.192000000e+05 >=   7.907560000e+05   3.5% (3615; 106353)
+3413017: mip =   8.192000000e+05 >=   7.907560000e+05   3.5% (3633; 107122)
+3431953: mip =   8.192000000e+05 >=   7.907560000e+05   3.5% (3628; 107888)
+3451325: mip =   8.192000000e+05 >=   7.907560000e+05   3.5% (3689; 108296)
+3470225: mip =   8.192000000e+05 >=   7.907560000e+05   3.5% (3707; 108895)
+3487369: mip =   8.192000000e+05 >=   7.907560000e+05   3.5% (3752; 109715)
+3504805: mip =   8.192000000e+05 >=   7.907560000e+05   3.5% (3765; 110621)
Time used: 961.6 secs.  Memory used: 70.0 Mb.
+3521271: mip =   8.192000000e+05 >=   7.907560000e+05   3.5% (3789; 111576)
+3539718: mip =   8.192000000e+05 >=   7.907560000e+05   3.5% (3807; 112428)
+3556115: mip =   8.192000000e+05 >=   7.907560000e+05   3.5% (3830; 113406)
+3571777: mip =   8.192000000e+05 >=   7.907560000e+05   3.5% (3838; 114395)
+3588930: mip =   8.192000000e+05 >=   7.907560000e+05   3.5% (3881; 115248)
+3606678: mip =   8.192000000e+05 >=   7.907560000e+05   3.5% (3920; 115745)
+3624109: mip =   8.192000000e+05 >=   7.907560000e+05   3.5% (3950; 116455)
+3642453: mip =   8.192000000e+05 >=   7.907560000e+05   3.5% (4010; 117147)
+3667373: mip =   8.192000000e+05 >=   7.907560000e+05   3.5% (4040; 117586)
+3693831: mip =   8.192000000e+05 >=   7.907560000e+05   3.5% (4057; 118100)
+3720419: mip =   8.192000000e+05 >=   7.907560000e+05   3.5% (4053; 118674)
+3742702: mip =   8.192000000e+05 >=   7.907560000e+05   3.5% (4120; 119031)
Time used: 1021.6 secs.  Memory used: 75.7 Mb.
+3765052: mip =   8.192000000e+05 >=   7.907560000e+05   3.5% (4201; 119706)
+3788184: mip =   8.192000000e+05 >=   7.907560000e+05   3.5% (4241; 120360)
+3810679: mip =   8.192000000e+05 >=   7.907560000e+05   3.5% (4285; 121026)
+3833014: mip =   8.192000000e+05 >=   7.907560000e+05   3.5% (4341; 121739)
+3856156: mip =   8.192000000e+05 >=   7.907560000e+05   3.5% (4386; 122405)
+3881701: mip =   8.192000000e+05 >=   7.907560000e+05   3.5% (4426; 122943)
+3902730: mip =   8.192000000e+05 >=   7.907560000e+05   3.5% (4466; 123672)
+3918283: mip =   8.192000000e+05 >=   7.907560000e+05   3.5% (4503; 124756)
+3936248: mip =   8.192000000e+05 >=   7.907560000e+05   3.5% (4540; 125643)
+3954425: mip =   8.192000000e+05 >=   7.907560000e+05   3.5% (4593; 126501)
+3974670: mip =   8.192000000e+05 >=   7.907560000e+05   3.5% (4625; 127387)
+3994555: mip =   8.192000000e+05 >=   7.907560000e+05   3.5% (4638; 128281)
Time used: 1081.6 secs.  Memory used: 81.0 Mb.
+4014530: mip =   8.192000000e+05 >=   7.907560000e+05   3.5% (4647; 129223)
+4033445: mip =   8.192000000e+05 >=   7.907560000e+05   3.5% (4758; 129982)
+4053487: mip =   8.192000000e+05 >=   7.907560000e+05   3.5% (4833; 130634)
+4074052: mip =   8.192000000e+05 >=   7.907560000e+05   3.5% (4915; 131272)
+4094081: mip =   8.192000000e+05 >=   7.907560000e+05   3.5% (4965; 132050)
+4116483: mip =   8.192000000e+05 >=   7.907560000e+05   3.5% (4999; 132755)
+4138478: mip =   8.192000000e+05 >=   7.907560000e+05   3.5% (5000; 133412)
+4155590: mip =   8.192000000e+05 >=   7.907560000e+05   3.5% (5008; 134424)
+4174141: mip =   8.192000000e+05 >=   7.907560000e+05   3.5% (5020; 135349)
+4192622: mip =   8.192000000e+05 >=   7.907560000e+05   3.5% (5013; 136340)
+4212756: mip =   8.192000000e+05 >=   7.907560000e+05   3.5% (5073; 136633)
+4231432: mip =   8.192000000e+05 >=   7.907560000e+05   3.5% (5123; 136996)
Time used: 1141.6 secs.  Memory used: 89.7 Mb.
+4253030: mip =   8.192000000e+05 >=   7.907560000e+05   3.5% (5243; 137414)
+4272947: mip =   8.192000000e+05 >=   7.907560000e+05   3.5% (5300; 138004)
+4294249: mip =   8.192000000e+05 >=   7.907560000e+05   3.5% (5386; 138527)
+4314122: mip =   8.192000000e+05 >=   7.907560000e+05   3.5% (5518; 139149)
+4333261: mip =   8.192000000e+05 >=   7.907560000e+05   3.5% (5638; 139896)
+4351422: mip =   8.192000000e+05 >=   7.907560000e+05   3.5% (5711; 140681)
+4364304: mip =   8.192000000e+05 >=   7.907560000e+05   3.5% (5718; 142039)
+4379099: mip =   8.192000000e+05 >=   7.907560000e+05   3.5% (5719; 143249)
+4397091: mip =   8.192000000e+05 >=   7.907560000e+05   3.5% (5862; 143979)
+4414950: mip =   8.192000000e+05 >=   7.907560000e+05   3.5% (5979; 144704)
+4438894: mip =   8.192000000e+05 >=   7.907560000e+05   3.5% (5980; 145291)
+4462770: mip =   8.192000000e+05 >=   7.907560000e+05   3.5% (6016; 145726)
Time used: 1201.6 secs.  Memory used: 101.7 Mb.
+4487351: mip =   8.192000000e+05 >=   7.907560000e+05   3.5% (6009; 146290)
+4512541: mip =   8.192000000e+05 >=   7.907560000e+05   3.5% (6006; 146842)
+4538008: mip =   8.192000000e+05 >=   7.907560000e+05   3.5% (6014; 147311)
+4561761: mip =   8.192000000e+05 >=   7.907560000e+05   3.5% (6065; 147847)
+4585650: mip =   8.192000000e+05 >=   7.907560000e+05   3.5% (6139; 148347)
+4610202: mip =   8.192000000e+05 >=   7.907560000e+05   3.5% (6143; 148866)
+4634484: mip =   8.192000000e+05 >=   7.907560000e+05   3.5% (6162; 149322)
+4656210: mip =   8.192000000e+05 >=   7.907560000e+05   3.5% (6143; 150052)
+4678029: mip =   8.192000000e+05 >=   7.907560000e+05   3.5% (6191; 150589)
+4697758: mip =   8.192000000e+05 >=   7.907560000e+05   3.5% (6215; 151188)
+4718612: mip =   8.192000000e+05 >=   7.907560000e+05   3.5% (6262; 151751)
+4739731: mip =   8.192000000e+05 >=   7.907560000e+05   3.5% (6311; 152288)
Time used: 1261.6 secs.  Memory used: 105.0 Mb.
+4760566: mip =   8.192000000e+05 >=   7.907560000e+05   3.5% (6305; 152988)
+4780759: mip =   8.192000000e+05 >=   7.907560000e+05   3.5% (6325; 153605)
+4802148: mip =   8.192000000e+05 >=   7.907560000e+05   3.5% (6345; 154162)
+4825113: mip =   8.192000000e+05 >=   7.907560000e+05   3.5% (6367; 154625)
+4845489: mip =   8.192000000e+05 >=   7.907560000e+05   3.5% (6408; 155138)
+4867642: mip =   8.192000000e+05 >=   7.907560000e+05   3.5% (6455; 155623)
+4890624: mip =   8.192000000e+05 >=   7.907560000e+05   3.5% (6520; 156037)
+4911763: mip =   8.192000000e+05 >=   7.907560000e+05   3.5% (6642; 156335)
+4932590: mip =   8.192000000e+05 >=   7.907560000e+05   3.5% (6730; 156758)
+4956106: mip =   8.192000000e+05 >=   7.907560000e+05   3.5% (6795; 157098)
+4979674: mip =   8.192000000e+05 >=   7.907560000e+05   3.5% (6837; 157494)
+5003073: mip =   8.192000000e+05 >=   7.907560000e+05   3.5% (6869; 157962)
Time used: 1321.6 secs.  Memory used: 112.7 Mb.
+5028685: mip =   8.192000000e+05 >=   7.907560000e+05   3.5% (6915; 158254)
+5052696: mip =   8.192000000e+05 >=   7.907560000e+05   3.5% (6951; 158650)
+5075065: mip =   8.192000000e+05 >=   7.907560000e+05   3.5% (6983; 159170)
+5097961: mip =   8.192000000e+05 >=   7.907560000e+05   3.5% (7054; 159625)
+5120567: mip =   8.192000000e+05 >=   7.907560000e+05   3.5% (7121; 160064)
+5143340: mip =   8.192000000e+05 >=   7.907560000e+05   3.5% (7152; 160396)
+5168211: mip =   8.192000000e+05 >=   7.907560000e+05   3.5% (7164; 160745)
+5193384: mip =   8.192000000e+05 >=   7.907560000e+05   3.5% (7180; 161127)
+5217752: mip =   8.192000000e+05 >=   7.907560000e+05   3.5% (7187; 161589)
+5237739: mip =   8.192000000e+05 >=   7.907560000e+05   3.5% (7243; 161812)
+5261043: mip =   8.192000000e+05 >=   7.907560000e+05   3.5% (7303; 162183)
+5284152: mip =   8.192000000e+05 >=   7.907560000e+05   3.5% (7344; 162583)
Time used: 1381.6 secs.  Memory used: 119.4 Mb.
+5307633: mip =   8.192000000e+05 >=   7.907560000e+05   3.5% (7391; 162885)
+5330605: mip =   8.192000000e+05 >=   7.907560000e+05   3.5% (7435; 163290)
+5353311: mip =   8.192000000e+05 >=   7.907560000e+05   3.5% (7466; 163645)
+5374634: mip =   8.192000000e+05 >=   7.907560000e+05   3.5% (7480; 164173)
+5395759: mip =   8.192000000e+05 >=   7.907560000e+05   3.5% (7508; 164421)
+5420226: mip =   8.192000000e+05 >=   7.907560000e+05   3.5% (7521; 164812)
+5444839: mip =   8.192000000e+05 >=   7.907560000e+05   3.5% (7548; 165159)
+5466339: mip =   8.192000000e+05 >=   7.907560000e+05   3.5% (7598; 165644)
+5488744: mip =   8.192000000e+05 >=   7.907560000e+05   3.5% (7643; 166039)
+5512786: mip =   8.192000000e+05 >=   7.907560000e+05   3.5% (7670; 166449)
+5535670: mip =   8.192000000e+05 >=   7.907560000e+05   3.5% (7688; 166863)
+5557759: mip =   8.192000000e+05 >=   7.907560000e+05   3.5% (7733; 167244)
Time used: 1441.6 secs.  Memory used: 127.1 Mb.
+5580179: mip =   8.192000000e+05 >=   7.907560000e+05   3.5% (7781; 167633)
+5601859: mip =   8.192000000e+05 >=   7.907560000e+05   3.5% (7837; 168049)
+5623523: mip =   8.192000000e+05 >=   7.907560000e+05   3.5% (7857; 168459)
+5647236: mip =   8.192000000e+05 >=   7.907560000e+05   3.5% (7897; 168774)
+5670945: mip =   8.192000000e+05 >=   7.907560000e+05   3.5% (7912; 169225)
+5693834: mip =   8.192000000e+05 >=   7.907560000e+05   3.5% (7928; 169719)
+5717908: mip =   8.192000000e+05 >=   7.907560000e+05   3.5% (7919; 170204)
+5741804: mip =   8.192000000e+05 >=   7.907560000e+05   3.5% (7929; 170618)
+5763304: mip =   8.192000000e+05 >=   7.907560000e+05   3.5% (7975; 171092)
+5784117: mip =   8.192000000e+05 >=   7.907560000e+05   3.5% (8042; 171496)
+5804067: mip =   8.192000000e+05 >=   7.907560000e+05   3.5% (8066; 171985)
+5823888: mip =   8.192000000e+05 >=   7.907560000e+05   3.5% (8080; 172523)
Time used: 1501.6 secs.  Memory used: 132.5 Mb.
+5845303: mip =   8.192000000e+05 >=   7.907560000e+05   3.5% (8092; 173008)
+5868733: mip =   8.192000000e+05 >=   7.907560000e+05   3.5% (8143; 173388)
+5891294: mip =   8.192000000e+05 >=   7.907560000e+05   3.5% (8153; 173896)
+5913644: mip =   8.192000000e+05 >=   7.907560000e+05   3.5% (8169; 174435)
+5936105: mip =   8.192000000e+05 >=   7.907560000e+05   3.5% (8179; 174959)
+5958318: mip =   8.192000000e+05 >=   7.907560000e+05   3.5% (8153; 175559)
+5983057: mip =   8.192000000e+05 >=   7.907560000e+05   3.5% (8181; 175956)
+6008308: mip =   8.192000000e+05 >=   7.907560000e+05   3.5% (8183; 176314)
+6030587: mip =   8.192000000e+05 >=   7.907560000e+05   3.5% (8231; 176665)
+6052121: mip =   8.192000000e+05 >=   7.907560000e+05   3.5% (8275; 177055)
+6075327: mip =   8.192000000e+05 >=   7.907560000e+05   3.5% (8304; 177409)
+6095232: mip =   8.192000000e+05 >=   7.907560000e+05   3.5% (8339; 177854)
Time used: 1561.6 secs.  Memory used: 137.1 Mb.
+6115181: mip =   8.192000000e+05 >=   7.907560000e+05   3.5% (8373; 178317)
+6136826: mip =   8.192000000e+05 >=   7.907560000e+05   3.5% (8431; 178773)
+6156927: mip =   8.192000000e+05 >=   7.907560000e+05   3.5% (8475; 179266)
+6179371: mip =   8.192000000e+05 >=   7.907560000e+05   3.5% (8507; 179653)
+6200874: mip =   8.192000000e+05 >=   7.907560000e+05   3.5% (8523; 180190)
+6221937: mip =   8.192000000e+05 >=   7.907560000e+05   3.5% (8534; 180755)
+6244120: mip =   8.192000000e+05 >=   7.907560000e+05   3.5% (8542; 181235)
+6268958: mip =   8.192000000e+05 >=   7.907560000e+05   3.5% (8552; 181582)
+6289851: mip =   8.192000000e+05 >=   7.907560000e+05   3.5% (8572; 182043)
+6312211: mip =   8.192000000e+05 >=   7.907560000e+05   3.5% (8576; 182478)
+6333333: mip =   8.192000000e+05 >=   7.907560000e+05   3.5% (8585; 183029)
+6354372: mip =   8.192000000e+05 >=   7.907560000e+05   3.5% (8629; 183527)
Time used: 1621.6 secs.  Memory used: 140.8 Mb.
+6375318: mip =   8.192000000e+05 >=   7.907560000e+05   3.5% (8628; 184138)
+6398994: mip =   8.192000000e+05 >=   7.907560000e+05   3.5% (8631; 184568)
+6420743: mip =   8.192000000e+05 >=   7.907560000e+05   3.5% (8648; 185087)
+6443373: mip =   8.192000000e+05 >=   7.907560000e+05   3.5% (8661; 185587)
+6468046: mip =   8.192000000e+05 >=   7.907560000e+05   3.5% (8662; 185962)
+6489788: mip =   8.192000000e+05 >=   7.907560000e+05   3.5% (8655; 186504)
+6510901: mip =   8.192000000e+05 >=   7.907560000e+05   3.5% (8685; 187006)
+6529943: mip =   8.192000000e+05 >=   7.907560000e+05   3.5% (8698; 187675)
+6553271: mip =   8.192000000e+05 >=   7.907560000e+05   3.5% (8693; 188190)
+6574100: mip =   8.192000000e+05 >=   7.907560000e+05   3.5% (8735; 188445)
+6596566: mip =   8.192000000e+05 >=   7.907560000e+05   3.5% (8736; 188843)
+6615845: mip =   8.192000000e+05 >=   7.907560000e+05   3.5% (8768; 189415)
Time used: 1681.6 secs.  Memory used: 143.1 Mb.
+6635121: mip =   8.192000000e+05 >=   7.907560000e+05   3.5% (8792; 190037)
+6653638: mip =   8.192000000e+05 >=   7.907560000e+05   3.5% (8814; 190739)
+6672139: mip =   8.192000000e+05 >=   7.907560000e+05   3.5% (8830; 191462)
+6690649: mip =   8.192000000e+05 >=   7.907560000e+05   3.5% (8877; 192119)
+6711200: mip =   8.192000000e+05 >=   7.907560000e+05   3.5% (8938; 192593)
+6730072: mip =   8.192000000e+05 >=   7.907560000e+05   3.5% (8971; 193147)
+6749476: mip =   8.192000000e+05 >=   7.907560000e+05   3.5% (9031; 193686)
+6767999: mip =   8.192000000e+05 >=   7.907560000e+05   3.5% (9032; 194450)
+6788319: mip =   8.192000000e+05 >=   7.907560000e+05   3.5% (9064; 194968)
+6807712: mip =   8.192000000e+05 >=   7.907560000e+05   3.5% (9075; 195601)
+6827989: mip =   8.192000000e+05 >=   7.907560000e+05   3.5% (9120; 196078)
+6849298: mip =   8.192000000e+05 >=   7.907560000e+05   3.5% (9136; 196503)
Time used: 1741.7 secs.  Memory used: 148.0 Mb.
+6871250: mip =   8.192000000e+05 >=   7.907560000e+05   3.5% (9147; 196904)
+6894017: mip =   8.192000000e+05 >=   7.907560000e+05   3.5% (9150; 197381)
+6915581: mip =   8.192000000e+05 >=   7.907560000e+05   3.5% (9176; 197809)
+6939521: mip =   8.192000000e+05 >=   7.907560000e+05   3.5% (9230; 198197)
+6963574: mip =   8.192000000e+05 >=   7.907560000e+05   3.5% (9272; 198631)
+6986932: mip =   8.192000000e+05 >=   7.907560000e+05   3.5% (9318; 199054)
+7011142: mip =   8.192000000e+05 >=   7.907560000e+05   3.5% (9336; 199518)
+7032542: mip =   8.192000000e+05 >=   7.908640000e+05   3.5% (9265; 200179)
+7054619: mip =   8.192000000e+05 >=   7.909840000e+05   3.4% (9317; 200478)
+7072477: mip =   8.192000000e+05 >=   7.912420000e+05   3.4% (9230; 201308)
+7088114: mip =   8.192000000e+05 >=   7.913740000e+05   3.4% (9081; 201985)
